30684.6
37 87 19 2 99 35 63 61 7 0 73 32 54 31 6 58 14 5 9 33 72 48 17 44 46 67 36 86 68 8 34 28 27 3 85 71 69 94 88 45 83 57 39 82 81 24 50 75 20 41 89 15 84 76 90 98 92 66 43 93 56 25 4 60 49 55 29 12 30 70 1 64 40 10 11 80 97 77 65 47 22 59 53 51 42 21 74 91 18 52 38 79 23 16 78 13 96 62 95 26 
